beginners/examples/Exercise2.smt2
(set-logic QF_BV)
(set-option :produce-models true)

(declare-const x (_ BitVec 8))
(declare-const y (_ BitVec 8))

(assert (= x (_ bv5 8)))
(assert (= (bvmul x y) (_ bv1 8)))

(check-sat)
(get-model)
