beginners/solutions/Exercise2.out.smt2
sat
(
(define-fun x () (_ BitVec 8) #b11001101)
)
